211697
12,72,23,57,3,34,49,47,81,56,77,51,27,20,66,71,36,70,14,45,54,76,74,5,59,65,32,21,19,73,13,37,29,10,1,64,62,67,58,16,11,38,43,60,55,61,79,75,9,26,80,46,18,48,63,41,52,50,4,68,24,22,8,39,30,35,28,83,53,31,44,82,40,17,7,33,2,42,6,69,15,78,25,12